1 3 100 109047.69
1 3 200 102652.72
1 3 300 105288.61
2 3 100 130732.03
2 3 200 134811.02
2 3 300 138585.11
3 3 100 137329.04
3 3 200 129465.23
3 3 300 137499.96
4 3 100 136615.15
4 3 200 126744.83
4 3 300 130529.57
5 3 100 108119.59
5 3 200 110806.94
5 3 300 114677.39
